(set-logic HORN)
(declare-fun state (Int (Array Int Int) (Array Int Int) (Array Int Int) (Array Int Int) Int Int (Array Int Int) (Array Int Int) Int Int Int Int Int Int Int Int Int Int Int Int Int Bool Bool Bool Bool Bool (Array Int Int)) Bool)
(assert (forall ((|hhv_ULTIMATE.start_L16_0_Int| Int) (|hbv_ULTIMATE.start_L25-4_1_Array_Int_Int| (Array Int Int)) (|hhv_ULTIMATE.start_L16_2_Array_Int_Int| (Array Int Int)) (|hhv_ULTIMATE.start_L16_3_Array_Int_Array_Int_Int| (Array Int Int)) (|hhv_ULTIMATE.start_L16_4_Array_Int_Array_Int_Int| (Array Int Int)) (|hhv_ULTIMATE.start_L16_5_Int| Int) (|hhv_ULTIMATE.start_L16_6_Int| Int) (|hhv_ULTIMATE.start_L16_7_Array_Int_Int| (Array Int Int)) (|hhv_ULTIMATE.start_L16_8_Array_Int_Int| (Array Int Int)) (|hhv_ULTIMATE.start_L16_9_Int| Int) (|hhv_ULTIMATE.start_L16_10_Int| Int) (|hhv_ULTIMATE.start_L16_11_Int| Int) (|hbv_ULTIMATE.start_L25-4_12_Int| Int) (|hhv_ULTIMATE.start_L16_13_Int| Int) (|hhv_ULTIMATE.start_L16_14_Int| Int) (|hhv_ULTIMATE.start_L16_15_Int| Int) (|hhv_ULTIMATE.start_L16_16_Int| Int) (|hhv_ULTIMATE.start_L16_17_Int| Int) (|hhv_ULTIMATE.start_L16_18_Int| Int) (|hbv_ULTIMATE.start_L25-4_19_Int| Int) (|hhv_ULTIMATE.start_L16_20_Int| Int) (|hhv_ULTIMATE.start_L16_21_Int| Int) (|hhv_ULTIMATE.start_L16_22_Bool| Bool) (|.loc.5| Bool) (|.loc.6| Bool) (|.loc.7| Bool) (|.loc.8| Bool) (|hbv_ULTIMATE.start_L-1_1_Array_Int_Int| (Array Int Int)) (|.x.398| Int) (|.x.396| (Array Int Int)) (|.x.394| Int) (|.x.392| (Array Int Int)) (|.x.388| Int) (|.x.390| (Array Int Int)) (|.x.399| Int) (|.x.403| Int) (|.x.410| Bool) (|.x.389| (Array Int Int)) (|.x.407| Int) (|.x.400| Int) (|.x.408| Int) (|.x.402| Int) (|.x.409| Int) (|.loc.10| Bool) (|.x.404| Int) (|.loc.9| Bool) (|.loc.11| Bool) (|.loc.12| Bool) (|.x.405| Int) (|.x.401| Int) (|.x.406| Int) (|.x.391| (Array Int Int)) (|.x.397| Int) (|.x.393| Int) (|.x.395| (Array Int Int)) (|.xtv.1| (Array Int Int))) (=> (and (and (and (and .loc.5 .loc.6) (not .loc.7)) (not .loc.8)) (and (and (and (and (and (= hbv_ULTIMATE.start_L25-4_1_Array_Int_Int hhv_ULTIMATE.start_L16_2_Array_Int_Int) (not hhv_ULTIMATE.start_L16_22_Bool)) (= hhv_ULTIMATE.start_L16_7_Array_Int_Int hhv_ULTIMATE.start_L16_8_Array_Int_Int)) (= hhv_ULTIMATE.start_L16_5_Int hhv_ULTIMATE.start_L16_6_Int)) (= hhv_ULTIMATE.start_L16_3_Array_Int_Array_Int_Int hhv_ULTIMATE.start_L16_4_Array_Int_Array_Int_Int)) (= hhv_ULTIMATE.start_L16_9_Int hhv_ULTIMATE.start_L16_10_Int))) (state |hhv_ULTIMATE.start_L16_0_Int| |hbv_ULTIMATE.start_L25-4_1_Array_Int_Int| |hhv_ULTIMATE.start_L16_2_Array_Int_Int| |hhv_ULTIMATE.start_L16_3_Array_Int_Array_Int_Int| |hhv_ULTIMATE.start_L16_4_Array_Int_Array_Int_Int| |hhv_ULTIMATE.start_L16_5_Int| |hhv_ULTIMATE.start_L16_6_Int| |hhv_ULTIMATE.start_L16_7_Array_Int_Int| |hhv_ULTIMATE.start_L16_8_Array_Int_Int| |hhv_ULTIMATE.start_L16_9_Int| |hhv_ULTIMATE.start_L16_10_Int| |hhv_ULTIMATE.start_L16_11_Int| |hbv_ULTIMATE.start_L25-4_12_Int| |hhv_ULTIMATE.start_L16_13_Int| |hhv_ULTIMATE.start_L16_14_Int| |hhv_ULTIMATE.start_L16_15_Int| |hhv_ULTIMATE.start_L16_16_Int| |hhv_ULTIMATE.start_L16_17_Int| |hhv_ULTIMATE.start_L16_18_Int| |hbv_ULTIMATE.start_L25-4_19_Int| |hhv_ULTIMATE.start_L16_20_Int| |hhv_ULTIMATE.start_L16_21_Int| |hhv_ULTIMATE.start_L16_22_Bool| |.loc.5| |.loc.6| |.loc.7| |.loc.8| |hbv_ULTIMATE.start_L-1_1_Array_Int_Int|))))
(assert (forall ((|hhv_ULTIMATE.start_L16_0_Int| Int) (|hbv_ULTIMATE.start_L25-4_1_Array_Int_Int| (Array Int Int)) (|hhv_ULTIMATE.start_L16_2_Array_Int_Int| (Array Int Int)) (|hhv_ULTIMATE.start_L16_3_Array_Int_Array_Int_Int| (Array Int Int)) (|hhv_ULTIMATE.start_L16_4_Array_Int_Array_Int_Int| (Array Int Int)) (|hhv_ULTIMATE.start_L16_5_Int| Int) (|hhv_ULTIMATE.start_L16_6_Int| Int) (|hhv_ULTIMATE.start_L16_7_Array_Int_Int| (Array Int Int)) (|hhv_ULTIMATE.start_L16_8_Array_Int_Int| (Array Int Int)) (|hhv_ULTIMATE.start_L16_9_Int| Int) (|hhv_ULTIMATE.start_L16_10_Int| Int) (|hhv_ULTIMATE.start_L16_11_Int| Int) (|hbv_ULTIMATE.start_L25-4_12_Int| Int) (|hhv_ULTIMATE.start_L16_13_Int| Int) (|hhv_ULTIMATE.start_L16_14_Int| Int) (|hhv_ULTIMATE.start_L16_15_Int| Int) (|hhv_ULTIMATE.start_L16_16_Int| Int) (|hhv_ULTIMATE.start_L16_17_Int| Int) (|hhv_ULTIMATE.start_L16_18_Int| Int) (|hbv_ULTIMATE.start_L25-4_19_Int| Int) (|hhv_ULTIMATE.start_L16_20_Int| Int) (|hhv_ULTIMATE.start_L16_21_Int| Int) (|hhv_ULTIMATE.start_L16_22_Bool| Bool) (|.loc.5| Bool) (|.loc.6| Bool) (|.loc.7| Bool) (|.loc.8| Bool) (|hbv_ULTIMATE.start_L-1_1_Array_Int_Int| (Array Int Int)) (|.x.398| Int) (|.x.396| (Array Int Int)) (|.x.394| Int) (|.x.392| (Array Int Int)) (|.x.388| Int) (|.x.390| (Array Int Int)) (|.x.399| Int) (|.x.403| Int) (|.x.410| Bool) (|.x.389| (Array Int Int)) (|.x.407| Int) (|.x.400| Int) (|.x.408| Int) (|.x.402| Int) (|.x.409| Int) (|.loc.10| Bool) (|.x.404| Int) (|.loc.9| Bool) (|.loc.11| Bool) (|.loc.12| Bool) (|.x.405| Int) (|.x.401| Int) (|.x.406| Int) (|.x.391| (Array Int Int)) (|.x.397| Int) (|.x.393| Int) (|.x.395| (Array Int Int)) (|.xtv.1| (Array Int Int))) (=> (and (state |hhv_ULTIMATE.start_L16_0_Int| |hbv_ULTIMATE.start_L25-4_1_Array_Int_Int| |hhv_ULTIMATE.start_L16_2_Array_Int_Int| |hhv_ULTIMATE.start_L16_3_Array_Int_Array_Int_Int| |hhv_ULTIMATE.start_L16_4_Array_Int_Array_Int_Int| |hhv_ULTIMATE.start_L16_5_Int| |hhv_ULTIMATE.start_L16_6_Int| |hhv_ULTIMATE.start_L16_7_Array_Int_Int| |hhv_ULTIMATE.start_L16_8_Array_Int_Int| |hhv_ULTIMATE.start_L16_9_Int| |hhv_ULTIMATE.start_L16_10_Int| |hhv_ULTIMATE.start_L16_11_Int| |hbv_ULTIMATE.start_L25-4_12_Int| |hhv_ULTIMATE.start_L16_13_Int| |hhv_ULTIMATE.start_L16_14_Int| |hhv_ULTIMATE.start_L16_15_Int| |hhv_ULTIMATE.start_L16_16_Int| |hhv_ULTIMATE.start_L16_17_Int| |hhv_ULTIMATE.start_L16_18_Int| |hbv_ULTIMATE.start_L25-4_19_Int| |hhv_ULTIMATE.start_L16_20_Int| |hhv_ULTIMATE.start_L16_21_Int| |hhv_ULTIMATE.start_L16_22_Bool| |.loc.5| |.loc.6| |.loc.7| |.loc.8| |hbv_ULTIMATE.start_L-1_1_Array_Int_Int|) (let ((.def_39 (not .loc.7))) (let ((.def_41 (not .loc.8))) (let ((.def_82 (= hhv_ULTIMATE.start_L16_22_Bool .x.410))) (let ((.def_86 (not .loc.5))) (let ((.def_88 (and .loc.5 .x.410))) (let ((.def_89 (not .loc.6))) (let ((.def_92 (= hbv_ULTIMATE.start_L25-4_19_Int .x.407))) (let ((.def_95 (= hbv_ULTIMATE.start_L25-4_12_Int .x.400))) (let ((.def_97 (= hhv_ULTIMATE.start_L16_11_Int .x.399))) (let ((.def_99 (= hbv_ULTIMATE.start_L25-4_1_Array_Int_Int .x.389))) (let ((.def_103 (= hhv_ULTIMATE.start_L16_20_Int .x.408))) (let ((.def_105 (= hhv_ULTIMATE.start_L16_14_Int .x.402))) (let ((.def_108 (= hhv_ULTIMATE.start_L16_21_Int .x.409))) (let ((.def_109 (and (and .def_103 .def_105) .def_108))) (let ((.def_113 (= .x.402 0))) (let ((.def_130 (+ hhv_ULTIMATE.start_L16_13_Int (* (- 4294967296) (to_int (* (/ 1 4294967296) (to_real hhv_ULTIMATE.start_L16_13_Int))))))) (let ((.def_138 (select hhv_ULTIMATE.start_L16_3_Array_Int_Array_Int_Int hbv_ULTIMATE.start_L25-4_12_Int))) (let ((.def_139 (select .def_138 (+ hbv_ULTIMATE.start_L25-4_19_Int (* 4 (ite (<= .def_130 2147483647) .def_130 (+ (- 4294967296) .def_130))))))) (let ((.def_150 (= .x.408 .x.402))) (let ((.def_165 (ite (and (not (= (+ hhv_ULTIMATE.start_L16_13_Int (* (- 2) (to_int (* (/ 1 2) (to_real hhv_ULTIMATE.start_L16_13_Int))))) 0)) (not (<= 0 .def_130))) (+ (- 2) (+ hhv_ULTIMATE.start_L16_13_Int (* (- 2) (to_int (* (/ 1 2) (to_real hhv_ULTIMATE.start_L16_13_Int)))))) (+ hhv_ULTIMATE.start_L16_13_Int (* (- 2) (to_int (* (/ 1 2) (to_real hhv_ULTIMATE.start_L16_13_Int)))))))) (let ((.def_170 (= (+ .def_165 (* (- 4294967296) (to_int (* (/ 1 4294967296) (to_real .def_165))))) 0))) (let ((.def_173 (or hhv_ULTIMATE.start_L16_22_Bool (and (and (and (= .x.409 .def_139) (= .x.408 (ite (not (= (+ .x.409 (* (- 4294967296) (to_int (* (/ 1 4294967296) (to_real .x.409))))) 0)) 1 0))) .def_150) (not .def_170))))) (let ((.def_178 (= hhv_ULTIMATE.start_L16_14_Int 0))) (let ((.def_189 (not .loc.10))) (let ((.def_194 (= hhv_ULTIMATE.start_L16_16_Int .x.404))) (let ((.def_220 (not .loc.9))) (let ((.def_240 (and .def_105 .def_194))) (let ((.def_244 (and .loc.6 (and .def_82 (and .def_108 (and .def_103 .def_240)))))) (let ((.def_246 (and .def_86 (and .loc.7 .def_244)))) (let ((.def_255 (<= 1000 .def_130))) (let ((.def_256 (or hhv_ULTIMATE.start_L16_22_Bool .def_255))) (let ((.def_260 (not .loc.11))) (let ((.def_264 (not .def_255))) (let ((.def_274 (not .loc.12))) (let ((.def_279 (= hhv_ULTIMATE.start_L16_17_Int .x.405))) (let ((.def_281 (= hhv_ULTIMATE.start_L16_13_Int .x.401))) (let ((.def_287 (= (+ hhv_ULTIMATE.start_L16_13_Int (* (- 1) .x.401)) (- 1)))) (let ((.def_302 (= .x.401 0))) (let ((.def_307 (and .def_82 (and .def_108 (and .def_103 (and .def_240 .def_279)))))) (let ((.def_322 (and .def_105 .def_281))) (let ((.def_342 (and .def_103 (and .def_279 (and .def_194 .def_322))))) (let ((.def_394 (= hhv_ULTIMATE.start_L16_18_Int .x.406))) (let ((.def_396 (= hhv_ULTIMATE.start_L16_3_Array_Int_Array_Int_Int .x.391))) (let ((.def_422 (and .def_281 .def_396))) (and (and (= hhv_ULTIMATE.start_L16_10_Int .x.398) (and (= hhv_ULTIMATE.start_L16_8_Array_Int_Int .x.396) (and (= hhv_ULTIMATE.start_L16_6_Int .x.394) (and (= hhv_ULTIMATE.start_L16_4_Array_Int_Array_Int_Int .x.392) (and (= hhv_ULTIMATE.start_L16_0_Int .x.388) (= hhv_ULTIMATE.start_L16_2_Array_Int_Int .x.390)))))) (or (and (or (or (or (or (or (and (or (or (or (or (or (or (and (or (and (or (or (or (and (or (and (or (and (or (and (and .loc.6 (and (or (= .x.399 .x.403) .x.410) (and (or hhv_ULTIMATE.start_L16_22_Bool (= (store hbv_ULTIMATE.start_L25-4_1_Array_Int_Int hbv_ULTIMATE.start_L25-4_12_Int 0) .x.389)) .def_82))) .def_86) (and (and (and (and (and .def_88 .def_89) .def_92) .def_95) .def_97) .def_99)) (and .def_39 (and .loc.8 .def_109))) (and (and (or hhv_ULTIMATE.start_L16_22_Bool .def_113) (and .def_41 (and .def_99 (and .def_97 (and .def_95 (and .def_92 (and .loc.7 (and .loc.6 .def_88)))))))) .def_173)) .loc.10) (and (or hhv_ULTIMATE.start_L16_22_Bool .def_178) (and (and .def_99 (and .def_97 (and .def_95 (and .def_92 (and .def_89 (and .def_39 (and .def_86 (and .loc.8 (and .def_82 .def_109))))))))) .def_189))) (and .def_194 .loc.9)) (and (or hhv_ULTIMATE.start_L16_22_Bool (and .def_170 (and (= .def_139 .x.404) (and .def_150 (= .x.408 (ite (= (+ .x.404 (* (- 4294967296) (to_int (* (/ 1 4294967296) (to_real .x.404))))) 0) 1 0)))))) (and (and .def_189 (and .def_41 (and .def_99 (and .def_97 (and .def_95 (and .def_92 (and .loc.7 (and .loc.6 (and .loc.5 (and .def_82 .def_108)))))))))) .def_220))) (and .def_220 (and .def_41 (and .def_99 (and .def_97 (and .def_95 (and .def_92 (and .loc.10 (and .def_86 (and .loc.7 (and .loc.6 (and .def_82 (and .def_108 (and .def_103 (and .def_194 (and hhv_ULTIMATE.start_L16_22_Bool .def_105)))))))))))))))) (and (and .def_220 (and .def_41 (and .def_99 (and .def_97 (and .def_95 (and .def_92 (and .loc.10 .def_246))))))) .def_256)) (and .def_260 .loc.12)) (and (or hhv_ULTIMATE.start_L16_22_Bool .def_264) (and (and .def_41 (and .def_99 (and .def_97 (and .def_95 (and .def_92 (and .loc.11 (and .loc.10 (and .loc.9 .def_246)))))))) .def_274))) (and .def_279 .def_281)) (and (or hhv_ULTIMATE.start_L16_22_Bool .def_287) (and .def_274 (and .def_220 (and .def_41 (and .def_99 (and .def_97 (and .def_95 (and .def_92 (and .loc.11 (and .loc.10 (and .def_39 (and .def_86 .def_244))))))))))))) (and (or hhv_ULTIMATE.start_L16_22_Bool .def_302) (and .def_274 (and .def_220 (and .def_41 (and .def_99 (and .def_97 (and .def_95 (and .def_92 (and .def_89 (and .loc.11 (and .loc.10 (and .loc.7 (and .loc.5 .def_307)))))))))))))) (and .def_274 (and .def_220 (and .def_41 (and .def_99 (and .def_97 (and .def_95 (and .def_92 (and .def_89 (and .def_260 (and .loc.10 (and .def_39 (and .def_86 (and .def_82 (and .def_108 (and .def_103 (and .def_279 .def_322))))))))))))))))) (and .def_274 (and .def_220 (and .def_41 (and .def_99 (and .def_97 (and .def_95 (and .def_92 (and .def_89 (and .def_260 (and .loc.10 (and .def_39 (and .loc.5 (and .def_82 .def_342)))))))))))))) (and .def_274 (and .def_189 (and .def_41 (and .def_99 (and .def_97 (and .def_95 (and .def_92 (and .def_89 (and .loc.11 (and .loc.9 (and .def_86 (and .loc.7 (and .def_82 (and .def_108 (and .def_103 (and .def_279 (and .def_194 (and .def_105 (and hhv_ULTIMATE.start_L16_22_Bool .def_281)))))))))))))))))))) (and .def_274 (and .def_256 (and .def_189 (and .def_41 (and .def_99 (and .def_97 (and .def_95 (and .def_92 (and .def_89 (and .loc.11 (and .loc.9 (and .def_86 (and .loc.7 (and .def_82 (and .def_108 .def_342)))))))))))))))) (and .def_394 .def_396)) (and (or hhv_ULTIMATE.start_L16_22_Bool (and .def_264 (= .x.391 (store hhv_ULTIMATE.start_L16_3_Array_Int_Array_Int_Int hbv_ULTIMATE.start_L25-4_12_Int (store .def_138 (+ hbv_ULTIMATE.start_L25-4_19_Int (* 4 (ite (<= .def_130 2147483647) .def_130 (+ (- 4294967296) .def_130)))) .def_165))))) (and (or .x.410 .def_287) (and .def_274 (and .def_220 (and .def_189 (and .def_41 (and .def_99 (and .def_97 (and .def_95 (and .def_92 (and .def_89 (and .loc.11 (and .def_86 (and .loc.7 .def_307))))))))))))))) (and (or hhv_ULTIMATE.start_L16_22_Bool (not .def_178)) (and .def_274 (and .def_220 (and .def_189 (and .def_99 (and .def_97 (and .def_95 (and .def_92 (and .def_89 (and .def_260 (and .def_39 (and .def_86 (and .loc.8 (and .def_82 (and .def_108 (and .def_103 (and .def_394 (and .def_279 (and .def_194 (and .def_105 .def_422))))))))))))))))))))) (and (or .x.410 (not .def_113)) (and .def_274 (and .def_189 (and .def_173 (and .def_41 (and .def_99 (and .def_97 (and .def_95 (and .def_92 (and .def_260 (and .loc.9 (and .loc.7 (and .loc.6 (and .loc.5 (and .def_82 (and .def_394 (and .def_279 (and .def_194 .def_422))))))))))))))))))) (and .def_274 (and .def_220 (and .def_189 (and .def_99 (and .def_97 (and .def_95 (and .def_92 (and .def_89 (and .def_260 (and .def_39 (and .loc.8 (and .loc.5 (and .def_82 (and .def_108 (and .def_103 (and .def_394 (and .def_279 (and .def_194 (and .def_105 (and .def_281 (and hhv_ULTIMATE.start_L16_22_Bool .def_396)))))))))))))))))))))) (and .def_274 (and .def_189 (and .def_173 (and .def_41 (and .def_99 (and .def_97 (and .def_95 (and .def_92 (and .def_260 (and .loc.9 (and .loc.7 (and .loc.6 (and .loc.5 (and .def_394 (and .def_279 (and .def_194 (and .def_281 (and .def_396 (and hhv_ULTIMATE.start_L16_22_Bool .x.410)))))))))))))))))))) (and (= hhv_ULTIMATE.start_L16_15_Int .x.403) (and (= hhv_ULTIMATE.start_L16_9_Int .x.397) (and (= hhv_ULTIMATE.start_L16_5_Int .x.393) (= hhv_ULTIMATE.start_L16_7_Array_Int_Int .x.395))))) (and (or hhv_ULTIMATE.start_L16_22_Bool (and (and (= .x.393 0) (= .x.397 0)) (= hbv_ULTIMATE.start_L-1_1_Array_Int_Int (store hbv_ULTIMATE.start_L25-4_1_Array_Int_Int 0 0)))) (and (or .x.410 (and (and (and .def_302 (and (and (and (not (<= .x.388 .x.400)) (= .x.395 (store hhv_ULTIMATE.start_L16_7_Array_Int_Int .x.400 4000))) (not (= .x.400 0))) (= .x.389 (store hbv_ULTIMATE.start_L-1_1_Array_Int_Int .x.400 1)))) (= .x.407 0)) (= (select hbv_ULTIMATE.start_L-1_1_Array_Int_Int .x.400) 0))) (and .def_274 (and .def_220 (and .def_189 (and .def_41 (and .def_97 (and .loc.11 (and .def_39 (and .loc.6 (and .loc.5 (and .def_82 (and .def_103 (and .def_105 .def_396))))))))))))))))))))))))))))))))))))))))))))))))))))))))))))) (state |.x.388| |.x.389| |.x.390| |.x.391| |.x.392| |.x.393| |.x.394| |.x.395| |.x.396| |.x.397| |.x.398| |.x.399| |.x.400| |.x.401| |.x.402| |.x.403| |.x.404| |.x.405| |.x.406| |.x.407| |.x.408| |.x.409| |.x.410| |.loc.9| |.loc.10| |.loc.11| |.loc.12| |.xtv.1|))))
(assert (forall ((|hhv_ULTIMATE.start_L16_0_Int| Int) (|hbv_ULTIMATE.start_L25-4_1_Array_Int_Int| (Array Int Int)) (|hhv_ULTIMATE.start_L16_2_Array_Int_Int| (Array Int Int)) (|hhv_ULTIMATE.start_L16_3_Array_Int_Array_Int_Int| (Array Int Int)) (|hhv_ULTIMATE.start_L16_4_Array_Int_Array_Int_Int| (Array Int Int)) (|hhv_ULTIMATE.start_L16_5_Int| Int) (|hhv_ULTIMATE.start_L16_6_Int| Int) (|hhv_ULTIMATE.start_L16_7_Array_Int_Int| (Array Int Int)) (|hhv_ULTIMATE.start_L16_8_Array_Int_Int| (Array Int Int)) (|hhv_ULTIMATE.start_L16_9_Int| Int) (|hhv_ULTIMATE.start_L16_10_Int| Int) (|hhv_ULTIMATE.start_L16_11_Int| Int) (|hbv_ULTIMATE.start_L25-4_12_Int| Int) (|hhv_ULTIMATE.start_L16_13_Int| Int) (|hhv_ULTIMATE.start_L16_14_Int| Int) (|hhv_ULTIMATE.start_L16_15_Int| Int) (|hhv_ULTIMATE.start_L16_16_Int| Int) (|hhv_ULTIMATE.start_L16_17_Int| Int) (|hhv_ULTIMATE.start_L16_18_Int| Int) (|hbv_ULTIMATE.start_L25-4_19_Int| Int) (|hhv_ULTIMATE.start_L16_20_Int| Int) (|hhv_ULTIMATE.start_L16_21_Int| Int) (|hhv_ULTIMATE.start_L16_22_Bool| Bool) (|.loc.5| Bool) (|.loc.6| Bool) (|.loc.7| Bool) (|.loc.8| Bool) (|hbv_ULTIMATE.start_L-1_1_Array_Int_Int| (Array Int Int)) (|.x.398| Int) (|.x.396| (Array Int Int)) (|.x.394| Int) (|.x.392| (Array Int Int)) (|.x.388| Int) (|.x.390| (Array Int Int)) (|.x.399| Int) (|.x.403| Int) (|.x.410| Bool) (|.x.389| (Array Int Int)) (|.x.407| Int) (|.x.400| Int) (|.x.408| Int) (|.x.402| Int) (|.x.409| Int) (|.loc.10| Bool) (|.x.404| Int) (|.loc.9| Bool) (|.loc.11| Bool) (|.loc.12| Bool) (|.x.405| Int) (|.x.401| Int) (|.x.406| Int) (|.x.391| (Array Int Int)) (|.x.397| Int) (|.x.393| Int) (|.x.395| (Array Int Int)) (|.xtv.1| (Array Int Int))) (=> (state |hhv_ULTIMATE.start_L16_0_Int| |hbv_ULTIMATE.start_L25-4_1_Array_Int_Int| |hhv_ULTIMATE.start_L16_2_Array_Int_Int| |hhv_ULTIMATE.start_L16_3_Array_Int_Array_Int_Int| |hhv_ULTIMATE.start_L16_4_Array_Int_Array_Int_Int| |hhv_ULTIMATE.start_L16_5_Int| |hhv_ULTIMATE.start_L16_6_Int| |hhv_ULTIMATE.start_L16_7_Array_Int_Int| |hhv_ULTIMATE.start_L16_8_Array_Int_Int| |hhv_ULTIMATE.start_L16_9_Int| |hhv_ULTIMATE.start_L16_10_Int| |hhv_ULTIMATE.start_L16_11_Int| |hbv_ULTIMATE.start_L25-4_12_Int| |hhv_ULTIMATE.start_L16_13_Int| |hhv_ULTIMATE.start_L16_14_Int| |hhv_ULTIMATE.start_L16_15_Int| |hhv_ULTIMATE.start_L16_16_Int| |hhv_ULTIMATE.start_L16_17_Int| |hhv_ULTIMATE.start_L16_18_Int| |hbv_ULTIMATE.start_L25-4_19_Int| |hhv_ULTIMATE.start_L16_20_Int| |hhv_ULTIMATE.start_L16_21_Int| |hhv_ULTIMATE.start_L16_22_Bool| |.loc.5| |.loc.6| |.loc.7| |.loc.8| |hbv_ULTIMATE.start_L-1_1_Array_Int_Int|) (not (and hhv_ULTIMATE.start_L16_22_Bool (and .loc.8 (and (and .loc.5 .loc.6) (not .loc.7))))))))
(check-sat)
